NAME : gtsp150.9512219.tour
COMMENT : Length = 9512219
COMMENT : Found by LKH-3 [Keld Helsgaun] Tue Mar 15 22:40:32 2022
TYPE : TOUR
DIMENSION : 169
TOUR_SECTION
1
87
151
103
152
34
153
76
154
7
155
73
156
84
157
30
158
48
159
63
160
8
161
95
162
107
163
82
164
89
165
96
166
5
167
100
143
97
168
124
35
93
126
33
52
111
105
54
92
90
46
138
134
131
32
23
38
67
43
109
51
20
25
110
81
29
86
108
70
135
50
55
58
141
83
56
146
26
75
18
142
85
65
132
137
102
114
99
19
2
37
6
28
9
42
120
47
139
40
53
118
24
12
116
101
41
57
39
127
69
36
61
11
148
130
17
66
60
140
117
129
27
31
123
74
13
106
91
119
68
128
45
71
44
64
112
136
145
144
147
49
72
80
14
122
77
133
16
59
15
78
79
121
94
88
21
150
115
4
104
22
125
149
62
3
113
10
169
98
-1
EOF
